\* Problem: Unknown *\

Maximize
 obj: + xp_0_0 + xp_0_1 + xp_1_0 + xp_1_1 + xp_2_0 + xp_2_1 + xp_3_0
 + xp_3_1 + xp_4_0 + xp_4_1 + xp_5_0 + xp_6_0 + xp_7_0 + xp_8_0 + xp_9_0
 + xp_9_1 + xp_10_0 + xp_11_0 + xp_11_1 + xp_12_0 + xp_12_1 + xp_12_2
 + xp_12_3 + xp_13_0 + xp_13_1 + xp_13_2 + xp_14_0 + xp_14_1 + xp_15_0
 + xp_16_0 + xp_17_0 + xp_17_1 + xp_18_0 + xp_18_1 + xp_18_2 + xp_19_0
 + xp_19_1 + xp_20_0 + xp_21_0 + xp_22_0 + xp_22_1 + xp_23_0 + xp_24_0
 + xp_24_1 + xp_24_2 + xp_24_3 + xp_25_0 + xp_26_0 + xp_27_0 + xp_28_0
 + xp_28_1 + xp_29_0 + xp_30_0 + xp_30_1 + xp_31_0 + xp_32_0 + xp_32_1
 + xp_32_2 + xp_33_0 + xp_34_0 + xp_34_1 + xp_35_0 + xp_36_0 + xp_37_0
 + xp_38_0 + xp_38_1 + xp_39_0 + xp_40_0 + xp_40_1 + xp_40_2 + xp_41_0
 + xp_42_0 + xp_42_1 + xp_42_2 + xp_43_0 + xp_44_0 + xp_45_0 + xp_46_0
 + xp_47_0 + xp_48_0 + xp_48_1 + xp_49_0 + xp_50_0 + xp_50_1 + xp_50_2
 + xp_51_0 + xp_52_0 + xp_53_0 + xp_53_1 + xp_54_0 + xp_55_0 + xp_55_1
 + xp_56_0 + xp_57_0 + xp_57_1 + xp_58_0 + xp_58_1 + xp_58_2 + xp_58_3
 + xp_59_0 + xp_60_0 + xp_60_1 + xp_61_0 + xp_61_1 + xp_62_0 + xp_63_0
 + xp_63_1 + xp_64_0 + xp_65_0 + xp_65_1 + xp_66_0 + xp_67_0 + xp_67_1
 + xp_68_0 + xp_68_1 + xp_68_2 + xp_69_0 + xp_70_0 + xp_71_0 + xp_72_0
 + xp_73_0 + xp_74_0 + xp_74_1 + xp_75_0 + xp_75_1 + xp_76_0 + xp_77_0
 + xp_77_1 + xp_77_2 + xp_78_0 + xp_78_1 + xp_78_2 + xp_78_3 + xp_78_4
 + xp_79_0 + xp_79_1 + xp_80_0 + xp_80_1 + xp_81_0 + xp_81_1 + xp_81_2
 + xp_82_0 + xp_83_0 + xp_84_0 + xp_85_0 + xp_85_1 + xp_85_2 + xp_86_0
 + xp_86_1 + xp_86_2 + xp_87_0 + xp_88_0 + xp_89_0 + xp_90_0 + xp_90_1
 + xp_90_2 + xp_91_0 + xp_91_1 + xp_91_2 + xp_92_0 + xp_92_1 + xp_93_0
 + xp_94_0 + xp_94_1 + xp_94_2 + xp_94_3 + xp_95_0 + xp_95_1 + xp_95_2
 + xp_96_0 + xp_96_1 + xp_97_0 + xp_98_0 + xp_98_1 + xp_98_2 + xp_99_0
 + xp_99_1 + xp_100_0 + xp_101_0 + xp_102_0 + xp_103_0 + xp_104_0
 + xp_105_0 + xp_105_1 + xp_106_0 + xp_107_0 + xp_108_0 + xp_108_1
 + xp_108_2 + xp_109_0 + xp_109_1 + xp_110_0 + xp_111_0 + xp_111_1
 + xp_112_0 + xp_112_1 + xp_113_0 + xp_114_0 + xp_115_0 + xp_115_1
 + xp_116_0 + xp_116_1 + xp_117_0 + xp_118_0 + xp_119_0 + xp_119_1
 + xp_120_0 + xp_120_1 + xp_120_2 + xp_121_0 + xp_122_0 + xp_123_0
 + xp_123_1 + xp_124_0 + xp_124_1 + xp_125_0 + xp_125_1 + xp_126_0
 + xp_126_1 + xp_126_2 + xp_126_3 + xp_126_4 + xp_126_5 + xp_127_0
 + xp_127_1 + xp_128_0 + xp_128_1 + xp_128_2 + xp_129_0 + xp_129_1
 + xp_130_0 + xp_131_0 + xp_131_1 + xp_131_2

Subject To
 r_1: + xp_128_2 + xp_128_1 + xp_123_1 + xp_122_0 + xp_121_0 + xp_108_2
 + xp_107_0 + xp_78_3 + xp_67_1 + xp_57_1 + xp_40_2 + xp_40_1 + xp_25_0
 + xp_22_1 + xp_18_2 + xp_18_0 + xp_16_0 + xp_13_2 + xp_13_1 + xp_4_1
 + xp_4_0 <= 38066.6125101544
 r_2: + xp_131_2 + xp_131_1 + xp_127_1 + xp_126_5 + xp_126_1 + xp_120_1
 + xp_120_0 + xp_94_3 + xp_94_2 + xp_94_1 + xp_93_0 + xp_90_1 + xp_85_2
 + xp_85_1 + xp_85_0 + xp_77_2 + xp_77_1 + xp_75_1 + xp_75_0 + xp_74_1
 + xp_71_0 + xp_66_0 + xp_65_1 + xp_65_0 + xp_61_1 + xp_55_0 + xp_52_0
 + xp_48_1 + xp_48_0 + xp_42_2 + xp_42_1 + xp_38_1 + xp_32_1 + xp_32_0
 + xp_28_1 + xp_28_0 + xp_24_3 + xp_24_2 + xp_24_0 + xp_19_1 + xp_19_0
 + xp_12_2 + xp_12_1 + xp_1_1 <= 34622.7347611203
 r_3: + xp_126_5 + xp_126_4 + xp_114_0 + xp_105_1 + xp_95_0 + xp_91_2
 + xp_76_0 + xp_58_3 + xp_34_0 <= 37964.8842777334
 r_4: + xp_117_0 + xp_95_2 + xp_95_1 + xp_91_1 + xp_91_0 + xp_84_0
 + xp_79_1 + xp_79_0 + xp_78_4 + xp_46_0 + xp_43_0 + xp_40_2 + xp_40_1
 + xp_40_0 + xp_34_1 <= 35837.0814592704
 r_5: + xp_130_0 + xp_99_0 + xp_86_0 + xp_78_4 + xp_7_0 + xp_2_0
 <= 37964.8842777334
 r_6: + xp_126_5 + xp_126_4 + xp_126_2 + xp_119_0 + xp_114_0 + xp_95_0
 + xp_91_2 + xp_83_0 + xp_81_0 + xp_70_0 + xp_68_1 + xp_58_3 + xp_58_1
 + xp_53_0 + xp_48_1 + xp_45_0 + xp_34_0 + xp_32_2 + xp_32_1 + xp_30_1
 + xp_18_0 <= 38172.0430107527
 r_7: + xp_119_1 + xp_112_1 + xp_111_1 + xp_104_0 + xp_88_0 + xp_82_0
 + xp_81_2 + xp_81_1 + xp_78_2 + xp_53_1 + xp_50_2 + xp_44_0 + xp_27_0
 + xp_18_2 + xp_18_1 + xp_4_1 + xp_3_1 <= 35837.0814592704
 r_8: + xp_131_2 + xp_131_1 + xp_127_1 + xp_126_5 + xp_126_1 + xp_120_1
 + xp_120_0 + xp_118_0 + xp_103_0 + xp_94_3 + xp_94_2 + xp_94_1
 + xp_90_1 + xp_77_2 + xp_77_1 + xp_74_1 + xp_71_0 + xp_61_1 + xp_55_0
 + xp_42_2 + xp_42_1 + xp_38_1 + xp_32_1 + xp_32_0 + xp_24_3 + xp_24_2
 + xp_24_0 + xp_12_2 + xp_12_1 + xp_1_1 <= 38066.6125101544
 r_9: + xp_131_0 + xp_127_0 + xp_123_1 + xp_122_0 + xp_120_2 + xp_108_2
 + xp_78_3 + xp_77_0 + xp_67_1 + xp_57_1 + xp_55_1 + xp_42_0 + xp_33_0
 + xp_32_2 + xp_24_1 <= 38635.1471900089
 r_10: + xp_124_1 + xp_112_1 + xp_111_1 + xp_106_0 + xp_99_0 + xp_98_0
 + xp_94_1 + xp_88_0 + xp_86_0 + xp_85_0 + xp_78_4 + xp_78_2 + xp_50_2
 + xp_26_0 + xp_24_0 + xp_8_0 + xp_7_0 + xp_4_1 + xp_3_1 + xp_2_0
 <= 38172.0430107527
 r_11: + xp_119_0 + xp_112_0 + xp_111_0 + xp_95_0 + xp_91_2 + xp_81_0
 + xp_78_3 + xp_78_1 + xp_78_0 + xp_59_0 + xp_53_0 + xp_50_1 + xp_50_0
 + xp_49_0 + xp_45_0 + xp_34_0 + xp_18_0 + xp_4_0 + xp_3_0
 <= 35616.5025785279
 r_12: + xp_129_0 + xp_128_1 + xp_128_0 + xp_123_0 + xp_117_0 + xp_112_1
 + xp_111_1 + xp_108_1 + xp_101_0 + xp_95_2 + xp_91_1 + xp_82_0
 + xp_81_1 + xp_80_1 + xp_79_1 + xp_78_4 + xp_78_2 + xp_78_0 + xp_73_0
 + xp_63_1 + xp_60_0 + xp_50_2 + xp_50_1 + xp_46_0 + xp_44_0 + xp_40_1
 + xp_40_0 + xp_18_1 + xp_17_1 + xp_15_0 + xp_14_1 + xp_13_2 + xp_13_0
 + xp_9_0 <= 35484.0162089149
 r_13: + xp_129_1 + xp_128_2 + xp_126_3 + xp_123_1 + xp_120_2 + xp_120_1
 + xp_119_1 + xp_109_1 + xp_100_0 + xp_96_1 + xp_95_1 + xp_92_1
 + xp_91_0 + xp_90_0 + xp_81_2 + xp_80_0 + xp_79_0 + xp_75_1 + xp_68_0
 + xp_63_0 + xp_60_1 + xp_58_2 + xp_53_1 + xp_40_2 + xp_34_1 + xp_31_0
 + xp_30_0 + xp_18_2 + xp_17_0 + xp_13_1 + xp_9_1 + xp_4_1
 <= 35616.5025785279
 r_14: + xp_131_2 + xp_131_1 + xp_131_0 + xp_126_5 + xp_126_4 + xp_126_2
 + xp_125_1 + xp_125_0 + xp_124_0 + xp_115_1 + xp_115_0 + xp_99_1
 + xp_98_2 + xp_98_1 + xp_94_3 + xp_94_2 + xp_94_0 + xp_86_2 + xp_86_1
 + xp_85_2 + xp_85_1 + xp_77_2 + xp_77_1 + xp_77_0 + xp_68_1 + xp_65_1
 + xp_65_0 + xp_58_3 + xp_58_1 + xp_56_0 + xp_51_0 + xp_48_1 + xp_41_0
 + xp_38_1 + xp_38_0 + xp_35_0 + xp_32_2 + xp_32_1 + xp_30_1 + xp_24_3
 + xp_24_2 + xp_24_1 + xp_20_0 + xp_19_1 + xp_19_0 + xp_12_3 + xp_12_2
 + xp_12_1 + xp_12_0 + xp_2_1 + xp_0_1 + xp_0_0 <= 35837.0814592704
 r_15: + xp_131_2 + xp_131_0 + xp_126_5 + xp_126_4 + xp_126_3 + xp_126_2
 + xp_125_0 + xp_124_0 + xp_120_2 + xp_120_1 + xp_116_0 + xp_115_0
 + xp_109_1 + xp_99_1 + xp_98_1 + xp_96_1 + xp_94_2 + xp_94_0 + xp_92_1
 + xp_90_0 + xp_89_0 + xp_86_1 + xp_85_1 + xp_77_1 + xp_77_0 + xp_75_1
 + xp_68_1 + xp_68_0 + xp_65_0 + xp_58_3 + xp_58_2 + xp_58_1 + xp_51_0
 + xp_48_1 + xp_42_1 + xp_42_0 + xp_38_0 + xp_36_0 + xp_32_2 + xp_32_1
 + xp_28_1 + xp_24_2 + xp_24_1 + xp_19_1 + xp_12_1 + xp_12_0 + xp_11_0
 + xp_0_0 <= 35484.0162089149
 r_16: + xp_128_0 + xp_123_0 + xp_108_1 + xp_108_0 + xp_78_4 + xp_78_2
 + xp_78_1 + xp_78_0 + xp_73_0 + xp_67_0 + xp_57_0 + xp_46_0 + xp_44_0
 + xp_40_0 + xp_22_0 + xp_18_1 + xp_13_0 + xp_6_0 <= 38635.1471900089
 r_17: + xp_129_0 + xp_128_1 + xp_126_0 + xp_124_1 + xp_112_1 + xp_111_1
 + xp_109_0 + xp_97_0 + xp_95_2 + xp_91_1 + xp_90_2 + xp_81_1 + xp_80_1
 + xp_79_1 + xp_68_2 + xp_63_1 + xp_62_0 + xp_61_0 + xp_60_0 + xp_55_1
 + xp_47_0 + xp_40_1 + xp_22_1 + xp_17_1 + xp_13_2 + xp_12_3 + xp_9_0
 + xp_1_0 + xp_0_1 <= 34622.7347611203
 r_18: + xp_126_3 + xp_126_1 + xp_126_0 + xp_124_1 + xp_106_0 + xp_99_0
 + xp_98_0 + xp_94_1 + xp_92_1 + xp_92_0 + xp_86_0 + xp_85_0 + xp_68_2
 + xp_68_0 + xp_58_2 + xp_58_0 + xp_48_0 + xp_32_0 + xp_30_0 + xp_26_0
 + xp_24_0 + xp_5_0 + xp_2_0 <= 35616.5025785279
 r_19: + xp_131_1 + xp_125_1 + xp_116_1 + xp_115_1 + xp_110_0 + xp_108_1
 + xp_98_2 + xp_94_3 + xp_86_2 + xp_85_2 + xp_78_0 + xp_77_2 + xp_65_1
 + xp_56_0 + xp_50_1 + xp_42_2 + xp_38_1 + xp_28_0 + xp_24_3 + xp_19_0
 + xp_14_1 + xp_12_3 + xp_12_2 + xp_11_1 + xp_3_0 + xp_2_1 + xp_0_1
 <= 35616.5025785279
 r_20: + xp_129_1 + xp_128_2 + xp_123_1 + xp_119_1 + xp_119_0 + xp_112_0
 + xp_111_0 + xp_108_2 + xp_108_0 + xp_107_0 + xp_95_1 + xp_95_0
 + xp_91_2 + xp_91_0 + xp_81_2 + xp_81_0 + xp_80_0 + xp_79_0 + xp_78_3
 + xp_78_1 + xp_69_0 + xp_64_0 + xp_63_0 + xp_60_1 + xp_50_0 + xp_49_0
 + xp_45_0 + xp_40_2 + xp_18_2 + xp_18_0 + xp_17_0 + xp_14_0 + xp_13_1
 + xp_10_0 + xp_9_1 + xp_4_1 + xp_4_0 <= 34622.7347611203
 r_21: + xp_126_5 + xp_126_4 + xp_113_0 + xp_105_1 + xp_99_1 + xp_86_2
 + xp_86_1 + xp_77_2 + xp_77_1 + xp_77_0 + xp_65_1 + xp_65_0 + xp_58_3
 + xp_38_1 + xp_38_0 + xp_20_0 + xp_2_1 + xp_0_1 + xp_0_0
 <= 35837.0814592704
 r_22: + xp_126_2 + xp_124_0 + xp_105_0 + xp_98_2 + xp_98_1 + xp_94_3
 + xp_94_2 + xp_94_0 + xp_85_2 + xp_85_1 + xp_83_0 + xp_68_1 + xp_58_1
 + xp_48_1 + xp_41_0 + xp_32_2 + xp_32_1 + xp_30_1 + xp_24_3 + xp_24_2
 + xp_24_1 <= 35837.0814592704
 r_23: + xp_128_2 + xp_128_1 + xp_128_0 + xp_119_1 + xp_117_0 + xp_112_1
 + xp_111_1 + xp_104_0 + xp_100_0 + xp_95_2 + xp_95_1 + xp_91_1
 + xp_91_0 + xp_84_0 + xp_82_0 + xp_81_2 + xp_81_1 + xp_80_1 + xp_80_0
 + xp_79_1 + xp_79_0 + xp_78_4 + xp_78_2 + xp_73_0 + xp_60_1 + xp_60_0
 + xp_53_1 + xp_50_2 + xp_46_0 + xp_44_0 + xp_40_2 + xp_40_1 + xp_40_0
 + xp_34_1 + xp_21_0 + xp_18_2 + xp_18_1 + xp_15_0 + xp_9_1 + xp_9_0
 + xp_4_1 + xp_3_1 <= 35837.0814592704
 r_24: + xp_128_0 + xp_126_5 + xp_126_1 + xp_103_0 + xp_94_3 + xp_94_2
 + xp_94_1 + xp_90_1 + xp_74_1 + xp_61_1 + xp_40_0 + xp_39_0 + xp_38_1
 + xp_22_0 + xp_18_1 + xp_13_0 + xp_12_2 + xp_12_1 + xp_1_1
 <= 38635.1471900089
 r_25: + xp_131_0 + xp_127_0 + xp_126_4 + xp_126_3 + xp_126_2 + xp_126_0
 + xp_120_2 + xp_94_0 + xp_90_2 + xp_90_0 + xp_89_0 + xp_77_0 + xp_74_0
 + xp_61_0 + xp_55_1 + xp_42_0 + xp_38_0 + xp_32_2 + xp_24_1 + xp_12_3
 + xp_12_0 + xp_1_0 <= 38635.1471900089
 r_26: + xp_128_2 + xp_128_1 + xp_123_1 + xp_121_0 + xp_112_1 + xp_112_0
 + xp_108_2 + xp_107_0 + xp_81_2 + xp_81_1 + xp_81_0 + xp_79_1 + xp_79_0
 + xp_78_3 + xp_67_1 + xp_64_0 + xp_60_1 + xp_60_0 + xp_57_1 + xp_47_0
 + xp_40_2 + xp_40_1 + xp_37_0 + xp_29_0 + xp_25_0 + xp_22_1 + xp_18_2
 + xp_18_0 + xp_17_1 + xp_17_0 + xp_13_2 + xp_13_1 + xp_4_1 + xp_4_0
 <= 34622.7347611203
 r_27: + xp_131_2 + xp_127_1 + xp_126_5 + xp_125_0 + xp_120_1 + xp_116_0
 + xp_115_0 + xp_108_0 + xp_99_1 + xp_98_1 + xp_96_1 + xp_94_2 + xp_92_1
 + xp_86_1 + xp_85_1 + xp_78_1 + xp_77_1 + xp_75_1 + xp_74_1 + xp_72_0
 + xp_67_0 + xp_65_0 + xp_58_3 + xp_58_2 + xp_58_1 + xp_57_0 + xp_52_0
 + xp_50_0 + xp_48_1 + xp_42_1 + xp_32_1 + xp_28_1 + xp_24_2 + xp_23_0
 + xp_19_1 + xp_14_0 + xp_12_1 + xp_11_0 <= 34622.7347611203
 r_28: + xp_131_1 + xp_126_1 + xp_126_0 + xp_125_1 + xp_124_1 + xp_120_0
 + xp_116_1 + xp_115_1 + xp_109_0 + xp_99_0 + xp_98_2 + xp_98_0
 + xp_96_0 + xp_94_3 + xp_94_1 + xp_92_0 + xp_90_2 + xp_90_1 + xp_86_2
 + xp_86_0 + xp_85_2 + xp_85_0 + xp_77_2 + xp_75_0 + xp_68_2 + xp_65_1
 + xp_58_0 + xp_54_0 + xp_48_0 + xp_42_2 + xp_38_1 + xp_32_0 + xp_28_0
 + xp_26_0 + xp_24_3 + xp_24_0 + xp_19_0 + xp_12_3 + xp_12_2 + xp_11_1
 + xp_0_1 <= 34622.7347611203
 r_29: + xp_129_1 + xp_129_0 + xp_95_2 + xp_95_1 + xp_95_0 + xp_93_0
 + xp_87_0 + xp_71_0 + xp_62_0 + xp_49_0 + xp_45_0 + xp_10_0 + xp_9_1
 + xp_9_0 + xp_1_1 + xp_1_0 <= 34622.7347611203
 r_30: + xp_125_1 + xp_125_0 + xp_121_0 + xp_102_0 + xp_99_1 + xp_99_0
 + xp_96_1 + xp_96_0 + xp_92_1 + xp_92_0 + xp_57_1 + xp_57_0 + xp_37_0
 + xp_26_0 + xp_23_0 + xp_11_1 + xp_11_0 <= 34622.7347611203

Bounds
 0 <= xp_0_0 <= 206.711758463484
 0 <= xp_0_1 <= 31.8018089943822
 0 <= xp_1_0 <= 135.335351963523
 0 <= xp_1_1 <= 49.2128552594629
 0 <= xp_2_0 <= 85.256385984241
 0 <= xp_2_1 <= 31.0023221760876
 0 <= xp_3_0 <= 135.139921852384
 0 <= xp_3_1 <= 49.1417897645034
 0 <= xp_4_0 <= 744.260045524112
 0 <= xp_4_1 <= 53.1614318231508
 0 <= xp_5_0 <= 1095.09706935892
 0 <= xp_6_0 <= 1811.30401074777
 0 <= xp_7_0 <= 645.18586236368
 0 <= xp_8_0 <= 1526.0870883212
 0 <= xp_9_0 <= 43.7585785213202
 0 <= xp_9_1 <= 65.6378677819804
 0 <= xp_10_0 <= 55.4310860684203
 0 <= xp_11_0 <= 22.3856309122467
 0 <= xp_11_1 <= 19.5874270482158
 0 <= xp_12_0 <= 1393.01694900951
 0 <= xp_12_1 <= 278.603389801902
 0 <= xp_12_2 <= 278.603389801902
 0 <= xp_12_3 <= 139.301694900951
 0 <= xp_13_0 <= 152.821905316998
 0 <= xp_13_1 <= 84.9010585094434
 0 <= xp_13_2 <= 16.9802117018887
 0 <= xp_14_0 <= 118.572778339948
 0 <= xp_14_1 <= 103.751181047454
 0 <= xp_15_0 <= 512.604298329839
 0 <= xp_16_0 <= 2669.55311018694
 0 <= xp_17_0 <= 180.164354502671
 0 <= xp_17_1 <= 120.109569668447
 0 <= xp_18_0 <= 145.160156641676
 0 <= xp_18_1 <= 120.966797201396
 0 <= xp_18_2 <= 96.7734377611171
 0 <= xp_19_0 <= 570.726990019851
 0 <= xp_19_1 <= 499.386116267369
 0 <= xp_20_0 <= 129.650112366762
 0 <= xp_21_0 <= 277.488549849724
 0 <= xp_22_0 <= 415.177946333781
 0 <= xp_22_1 <= 830.355892667562
 0 <= xp_23_0 <= 52.5662583028649
 0 <= xp_24_0 <= 183.668771722862
 0 <= xp_24_1 <= 91.8343858614309
 0 <= xp_24_2 <= 22.9585964653577
 0 <= xp_24_3 <= 45.9171929307155
 0 <= xp_25_0 <= 585.157727090067
 0 <= xp_26_0 <= 15.5233690552187
 0 <= xp_27_0 <= 341.64736701786
 0 <= xp_28_0 <= 314.953390473693
 0 <= xp_28_1 <= 359.946731969934
 0 <= xp_29_0 <= 2475.0779416368
 0 <= xp_30_0 <= 135.970499824724
 0 <= xp_30_1 <= 49.4438181180813
 0 <= xp_31_0 <= 192.742947110505
 0 <= xp_32_0 <= 1972.82699760387
 0 <= xp_32_1 <= 151.755922892605
 0 <= xp_32_2 <= 151.755922892605
 0 <= xp_33_0 <= 8149.90200179285
 0 <= xp_34_0 <= 172.20057747377
 0 <= xp_34_1 <= 344.401154947541
 0 <= xp_35_0 <= 263.963897840242
 0 <= xp_36_0 <= 322.526307280316
 0 <= xp_37_0 <= 368.963166642923
 0 <= xp_38_0 <= 316.010489711215
 0 <= xp_38_1 <= 22.5721778365154
 0 <= xp_39_0 <= 1591.11201620915
 0 <= xp_40_0 <= 400.73388448326
 0 <= xp_40_1 <= 114.495395566646
 0 <= xp_40_2 <= 343.486186699937
 0 <= xp_41_0 <= 80.8147925492714
 0 <= xp_42_0 <= 275.583106266122
 0 <= xp_42_1 <= 91.8610354220408
 0 <= xp_42_2 <= 91.8610354220408
 0 <= xp_43_0 <= 497.613920486816
 0 <= xp_44_0 <= 463.768978512348
 0 <= xp_45_0 <= 43.0390403848552
 0 <= xp_46_0 <= 1623.69110405465
 0 <= xp_47_0 <= 888.896094140461
 0 <= xp_48_0 <= 2743.42125060392
 0 <= xp_48_1 <= 195.958660757423
 0 <= xp_49_0 <= 89.0761563383148
 0 <= xp_50_0 <= 370.171280057234
 0 <= xp_50_1 <= 52.8816114367478
 0 <= xp_50_2 <= 370.171280057234
 0 <= xp_51_0 <= 717.606043320859
 0 <= xp_52_0 <= 669.903329829286
 0 <= xp_53_0 <= 153.661366476207
 0 <= xp_53_1 <= 38.4153416190519
 0 <= xp_54_0 <= 3735.40228677659
 0 <= xp_55_0 <= 1118.72190483953
 0 <= xp_55_1 <= 79.9087074885376
 0 <= xp_56_0 <= 96.8711528166864
 0 <= xp_57_0 <= 180.612955439603
 0 <= xp_57_1 <= 27.7866085291697
 0 <= xp_58_0 <= 3065.4101250786
 0 <= xp_58_1 <= 919.623037523581
 0 <= xp_58_2 <= 306.54101250786
 0 <= xp_58_3 <= 306.54101250786
 0 <= xp_59_0 <= 10765.1566322373
 0 <= xp_60_0 <= 319.927975120859
 0 <= xp_60_1 <= 365.631971566695
 0 <= xp_61_0 <= 1468.5373621843
 0 <= xp_61_1 <= 979.024908122864
 0 <= xp_62_0 <= 132.714811836891
 0 <= xp_63_0 <= 106.651541560489
 0 <= xp_63_1 <= 26.6628853901224
 0 <= xp_64_0 <= 1005.68779351299
 0 <= xp_65_0 <= 493.105703150322
 0 <= xp_65_1 <= 35.2218359393087
 0 <= xp_66_0 <= 1699.10936058044
 0 <= xp_67_0 <= 327.363202530998
 0 <= xp_67_1 <= 81.8408006327494
 0 <= xp_68_0 <= 695.384751365707
 0 <= xp_68_1 <= 695.384751365707
 0 <= xp_68_2 <= 99.3406787665295
 0 <= xp_69_0 <= 1738.15096687382
 0 <= xp_70_0 <= 638.856591718849
 0 <= xp_71_0 <= 71.687318040409
 0 <= xp_72_0 <= 605.8777604642
 0 <= xp_73_0 <= 933.534108161905
 0 <= xp_74_0 <= 899.840180364226
 0 <= xp_74_1 <= 64.2742985974447
 0 <= xp_75_0 <= 1665.1800283307
 0 <= xp_75_1 <= 118.94143059505
 0 <= xp_76_0 <= 1741.74865755614
 0 <= xp_77_0 <= 424.376486337603
 0 <= xp_77_1 <= 115.739041728437
 0 <= xp_77_2 <= 38.5796805761457
 0 <= xp_78_0 <= 1887.53952046559
 0 <= xp_78_1 <= 3775.07904093117
 0 <= xp_78_2 <= 11325.2371227935
 0 <= xp_78_3 <= 7550.15808186234
 0 <= xp_78_4 <= 3775.07904093117
 0 <= xp_79_0 <= 646.70488731844
 0 <= xp_79_1 <= 431.136591545627
 0 <= xp_80_0 <= 136.872143292022
 0 <= xp_80_1 <= 91.2480955280149
 0 <= xp_81_0 <= 175.975931893495
 0 <= xp_81_1 <= 70.3903727573978
 0 <= xp_81_2 <= 17.5975931893495
 0 <= xp_82_0 <= 222.390583288927
 0 <= xp_83_0 <= 509.806094465808
 0 <= xp_84_0 <= 900.555276907256
 0 <= xp_85_0 <= 137.844852254281
 0 <= xp_85_1 <= 220.551763606849
 0 <= xp_85_2 <= 55.1379409017123
 0 <= xp_86_0 <= 57.8295465233039
 0 <= xp_86_1 <= 92.5272744372862
 0 <= xp_86_2 <= 23.1318186093215
 0 <= xp_87_0 <= 142.974892671671
 0 <= xp_88_0 <= 430.323779947027
 0 <= xp_89_0 <= 2247.49069402895
 0 <= xp_90_0 <= 10249.9140274071
 0 <= xp_90_1 <= 5857.0937299469
 0 <= xp_90_2 <= 5857.0937299469
 0 <= xp_91_0 <= 1285.27721705745
 0 <= xp_91_1 <= 1285.27721705745
 0 <= xp_91_2 <= 183.611031008207
 0 <= xp_92_0 <= 63.1772250190072
 0 <= xp_92_1 <= 4.51265892992909
 0 <= xp_93_0 <= 132.048572821645
 0 <= xp_94_0 <= 175.984815080365
 0 <= xp_94_1 <= 31.9972391055208
 0 <= xp_94_2 <= 15.9986195527604
 0 <= xp_94_3 <= 15.9986195527604
 0 <= xp_95_0 <= 49.6747809766997
 0 <= xp_95_1 <= 4.13956508139164
 0 <= xp_95_2 <= 8.27913016278329
 0 <= xp_96_0 <= 101.277213504176
 0 <= xp_96_1 <= 15.5811097698733
 0 <= xp_97_0 <= 534.057194620742
 0 <= xp_98_0 <= 86.9042171486147
 0 <= xp_98_1 <= 48.2801206381193
 0 <= xp_98_2 <= 9.65602412762385
 0 <= xp_99_0 <= 15.4833947143039
 0 <= xp_99_1 <= 1.10595676530742
 0 <= xp_100_0 <= 509.606222761234
 0 <= xp_101_0 <= 253.170825793266
 0 <= xp_102_0 <= 75.9512477379797
 0 <= xp_103_0 <= 1458.79694778141
 0 <= xp_104_0 <= 133.647546458235
 0 <= xp_105_0 <= 1371.11989337511
 0 <= xp_105_1 <= 97.9371352410791
 0 <= xp_106_0 <= 41.9730579604625
 0 <= xp_107_0 <= 455.707486427878
 0 <= xp_108_0 <= 172.062888077286
 0 <= xp_108_1 <= 286.771480128811
 0 <= xp_108_2 <= 401.480072180335
 0 <= xp_109_0 <= 457.102146766459
 0 <= xp_109_1 <= 522.402453447382
 0 <= xp_110_0 <= 134.980024488725
 0 <= xp_111_0 <= 2370.95810833424
 0 <= xp_111_1 <= 592.73952708356
 0 <= xp_112_0 <= 3794.73753347435
 0 <= xp_112_1 <= 948.684383368587
 0 <= xp_113_0 <= 431.056642863797
 0 <= xp_114_0 <= 2429.64044079706
 0 <= xp_115_0 <= 149.237539414978
 0 <= xp_115_1 <= 74.6187697074889
 0 <= xp_116_0 <= 107.886304535411
 0 <= xp_116_1 <= 53.9431522677055
 0 <= xp_117_0 <= 1969.06940955789
 0 <= xp_118_0 <= 3196.6147951476
 0 <= xp_119_0 <= 59.3841042255432
 0 <= xp_119_1 <= 4.24172173039594
 0 <= xp_120_0 <= 1465.63700167126
 0 <= xp_120_1 <= 586.254800668504
 0 <= xp_120_2 <= 146.563700167126
 0 <= xp_121_0 <= 76.5508628517006
 0 <= xp_122_0 <= 2304.98712104464
 0 <= xp_123_0 <= 485.954737720021
 0 <= xp_123_1 <= 34.7110526942872
 0 <= xp_124_0 <= 130.209753139568
 0 <= xp_124_1 <= 9.30069665282629
 0 <= xp_125_0 <= 16.5893514796114
 0 <= xp_125_1 <= 11.0595676530742
 0 <= xp_126_0 <= 1714.41509155734
 0 <= xp_126_1 <= 8572.07545778671
 0 <= xp_126_2 <= 6857.66036622936
 0 <= xp_126_3 <= 3428.83018311468
 0 <= xp_126_4 <= 1714.41509155734
 0 <= xp_126_5 <= 3428.83018311468
 0 <= xp_127_0 <= 389.660992049881
 0 <= xp_127_1 <= 194.83049602494
 0 <= xp_128_0 <= 164.614335886842
 0 <= xp_128_1 <= 27.4357226478071
 0 <= xp_128_2 <= 219.485781182457
 0 <= xp_129_0 <= 13.2359484362093
 0 <= xp_129_1 <= 36.3988581995757
 0 <= xp_130_0 <= 409.004131459173
 0 <= xp_131_0 <= 311.186919240838
 0 <= xp_131_1 <= 259.322432700699
 0 <= xp_131_2 <= 207.457946160559

End
